(set-logic HORN)
(declare-fun state (Int Int Int (Array Int Int) Int Int Int Int (Array Int Int) Bool Bool) Bool)
(assert (forall ((|A_0| Int) (|D_0| Int) (|.y.12| Int) (|C_0| (Array Int Int)) (|F_0| Int) (|B_0| Int) (|.y.13| Int) (|.y.14| Int) (|E_0| (Array Int Int)) (|.loc.15| Bool) (|.loc.16| Bool) (|.loc.26| Bool) (|.loc.27| Bool) (|.y.18| Int) (|.y.21| Int) (|.y.22| Int) (|.y.25| (Array Int Int)) (|.y.20| (Array Int Int)) (|.y.17| Int) (|.y.23| Int) (|.y.19| Int) (|.y.24| Int)) (=> (and (and .loc.15 (not .loc.16)) (and (and (= D_0 F_0) (= C_0 E_0)) (= A_0 B_0))) (state |A_0| |D_0| |.y.12| |C_0| |F_0| |B_0| |.y.13| |.y.14| |E_0| |.loc.15| |.loc.16|))))
(assert (forall ((|A_0| Int) (|D_0| Int) (|.y.12| Int) (|C_0| (Array Int Int)) (|F_0| Int) (|B_0| Int) (|.y.13| Int) (|.y.14| Int) (|E_0| (Array Int Int)) (|.loc.15| Bool) (|.loc.16| Bool) (|.loc.26| Bool) (|.loc.27| Bool) (|.y.18| Int) (|.y.21| Int) (|.y.22| Int) (|.y.25| (Array Int Int)) (|.y.20| (Array Int Int)) (|.y.17| Int) (|.y.23| Int) (|.y.19| Int) (|.y.24| Int)) (=> (and (state |A_0| |D_0| |.y.12| |C_0| |F_0| |B_0| |.y.13| |.y.14| |E_0| |.loc.15| |.loc.16|) (let ((.def_30 (not .loc.26))) (let ((.def_33 (select E_0 F_0))) (let ((.def_35 (= .def_33 0))) (let ((.def_36 (not .def_35))) (let ((.def_38 (= (select C_0 D_0) 0))) (let ((.def_40 (not .def_38))) (let ((.def_44 (not (= C_0 E_0)))) (let ((.def_49 (select C_0 (+ A_0 D_0)))) (let ((.def_50 (= .def_49 0))) (let ((.def_51 (not .def_50))) (let ((.def_52 (not .loc.15))) (let ((.def_55 (= .def_49 (select C_0 .y.12)))) (let ((.def_56 (and (and .def_51 .def_52) .def_55))) (let ((.def_57 (select E_0 .y.14))) (let ((.def_58 (= .def_57 0))) (let ((.def_62 (not .def_58))) (let ((.def_64 (= F_0 .def_57))) (let ((.def_92 (not .loc.27))) (let ((.def_95 (= E_0 .y.25))) (let ((.def_100 (= C_0 .y.20))) (let ((.def_103 (= A_0 .y.17))) (let ((.def_107 (and .def_30 .def_52))) (let ((.def_108 (and .def_51 .def_107))) (let ((.def_115 (= .y.13 .y.23))) (let ((.def_117 (= B_0 .y.22))) (let ((.def_119 (= F_0 .y.21))) (let ((.def_122 (= .y.12 .y.19))) (let ((.def_127 (= (+ .y.14 (* (- 1) .y.24)) (- 1)))) (let ((.def_130 (= (+ D_0 (* (- 1) .y.18)) (- 1)))) (let ((.def_132 (not .def_64))) (let ((.def_134 (not .def_55))) (and (not .loc.16) (or (or (or (or (or (and (and .def_30 .loc.27) (or (or (or (and .loc.15 (or (or (and .def_36 .def_38) (and .def_35 .def_40)) (and (and .def_35 .def_38) .def_44))) (and .def_56 .def_58)) (and (and (and .def_50 .def_52) .def_62) .def_64)) (and (or .def_44 (not (= (+ .y.12 (* (- 1) B_0)) (- 1)))) (and .def_64 (and .def_56 .def_62))))) (and (= (+ .y.12 (* (- 1) .y.18)) (- 1)) (and (and (and (= B_0 .y.21) (and (= .y.13 .y.22) (and (and (and .def_58 (and .def_50 (and .loc.26 .def_52))) .def_92) .def_95))) .def_100) .def_103))) (and (and (and (and (and (and (and (and (and .def_103 (and .def_100 (and .def_95 (and .def_92 (and .def_62 .def_108))))) .def_115) .def_117) .def_119) .def_122) .def_127) .def_130) .def_132) .def_134)) (and (or .def_58 .def_64) (and (= .y.14 .y.24) (and .def_134 (and .def_130 (and .def_122 (and .def_119 (and .def_117 (and .def_115 (and .def_103 (and .def_100 (and .def_95 (and .def_92 .def_108))))))))))))) (and (or .def_50 .def_55) (and (= D_0 .y.18) (and .def_132 (and .def_127 (and .def_122 (and .def_119 (and .def_117 (and .def_115 (and .def_103 (and .def_100 (and .def_95 (and .def_92 (and .def_62 .def_107)))))))))))))) (and (= (+ F_0 (* (- 1) .y.22)) (- 1)) (and (= .def_33 .y.21) (and (= .y.18 0) (and (= B_0 .y.24) (and (= D_0 .y.19) (and (= B_0 .y.23) (and .def_103 (and .def_100 (and .def_95 (and .def_92 (and .def_30 (and .loc.15 (and .def_36 .def_40))))))))))))))))))))))))))))))))))))))))))))))) (state |.y.17| |.y.18| |.y.19| |.y.20| |.y.21| |.y.22| |.y.23| |.y.24| |.y.25| |.loc.26| |.loc.27|))))
(assert (forall ((|A_0| Int) (|D_0| Int) (|.y.12| Int) (|C_0| (Array Int Int)) (|F_0| Int) (|B_0| Int) (|.y.13| Int) (|.y.14| Int) (|E_0| (Array Int Int)) (|.loc.15| Bool) (|.loc.16| Bool) (|.loc.26| Bool) (|.loc.27| Bool) (|.y.18| Int) (|.y.21| Int) (|.y.22| Int) (|.y.25| (Array Int Int)) (|.y.20| (Array Int Int)) (|.y.17| Int) (|.y.23| Int) (|.y.19| Int) (|.y.24| Int)) (=> (state |A_0| |D_0| |.y.12| |C_0| |F_0| |B_0| |.y.13| |.y.14| |E_0| |.loc.15| |.loc.16|) (not (and .loc.16 (not .loc.15))))))
(check-sat)
